(declare-fun C1 () Real)
(declare-fun C2 () Real)
(declare-fun C3 () Real)
(declare-fun C4 () Real)
(declare-fun C5 () Real)
(declare-fun C6 () Real)
(declare-fun C7 () Real)
(declare-fun C8 () Real)
(declare-fun C9 () Real)
(declare-fun C10 () Real)
(declare-fun k () Real)
(assert (let 
(( $goal (<= (+ (/ C1 126 ) (/ C2 263 ) (/ C3 345 ) (/ C4 703 ) (/ C5 1212 ) (/ C6 1798 ) (/ C7 2897 ) (/ C8 4115 ) (/ C9 4714 ) (/ C10 4783 ) ) k ) ))
(let 
(($phi ( and ( or  (>= 126 (+  (* 1 C1)  (* 0 C2)  (* 0 C3)  (* 0 C4)  (* 0 C5)  (* 0 C6)  (* 0 C7)  (* 0 C8)  (* 0 C9)  (* 0 C10) )) ) ( or  (>= 252 (+  (* 2 C1)  (* 1 C2)  (* 0 C3)  (* 0 C4)  (* 0 C5)  (* 0 C6)  (* 0 C7)  (* 0 C8)  (* 0 C9)  (* 0 C10) ))  (>= 263 (+  (* 3 C1)  (* 1 C2)  (* 0 C3)  (* 0 C4)  (* 0 C5)  (* 0 C6)  (* 0 C7)  (* 0 C8)  (* 0 C9)  (* 0 C10) )) ) ( or  (>= 252 (+  (* 2 C1)  (* 1 C2)  (* 1 C3)  (* 0 C4)  (* 0 C5)  (* 0 C6)  (* 0 C7)  (* 0 C8)  (* 0 C9)  (* 0 C10) ))  (>= 263 (+  (* 3 C1)  (* 1 C2)  (* 1 C3)  (* 0 C4)  (* 0 C5)  (* 0 C6)  (* 0 C7)  (* 0 C8)  (* 0 C9)  (* 0 C10) ))  (>= 345 (+  (* 3 C1)  (* 2 C2)  (* 1 C3)  (* 0 C4)  (* 0 C5)  (* 0 C6)  (* 0 C7)  (* 0 C8)  (* 0 C9)  (* 0 C10) )) ) ( or  (>= 504 (+  (* 4 C1)  (* 2 C2)  (* 2 C3)  (* 1 C4)  (* 0 C5)  (* 0 C6)  (* 0 C7)  (* 0 C8)  (* 0 C9)  (* 0 C10) ))  (>= 526 (+  (* 5 C1)  (* 2 C2)  (* 2 C3)  (* 1 C4)  (* 0 C5)  (* 0 C6)  (* 0 C7)  (* 0 C8)  (* 0 C9)  (* 0 C10) ))  (>= 630 (+  (* 5 C1)  (* 3 C2)  (* 2 C3)  (* 1 C4)  (* 0 C5)  (* 0 C6)  (* 0 C7)  (* 0 C8)  (* 0 C9)  (* 0 C10) ))  (>= 690 (+  (* 6 C1)  (* 3 C2)  (* 2 C3)  (* 1 C4)  (* 0 C5)  (* 0 C6)  (* 0 C7)  (* 0 C8)  (* 0 C9)  (* 0 C10) ))  (>= 703 (+  (* 6 C1)  (* 3 C2)  (* 3 C3)  (* 1 C4)  (* 0 C5)  (* 0 C6)  (* 0 C7)  (* 0 C8)  (* 0 C9)  (* 0 C10) )) ) ( or  (>= 504 (+  (* 4 C1)  (* 2 C2)  (* 2 C3)  (* 1 C4)  (* 1 C5)  (* 0 C6)  (* 0 C7)  (* 0 C8)  (* 0 C9)  (* 0 C10) ))  (>= 526 (+  (* 5 C1)  (* 2 C2)  (* 2 C3)  (* 1 C4)  (* 1 C5)  (* 0 C6)  (* 0 C7)  (* 0 C8)  (* 0 C9)  (* 0 C10) ))  (>= 630 (+  (* 5 C1)  (* 3 C2)  (* 2 C3)  (* 1 C4)  (* 1 C5)  (* 0 C6)  (* 0 C7)  (* 0 C8)  (* 0 C9)  (* 0 C10) ))  (>= 690 (+  (* 6 C1)  (* 3 C2)  (* 2 C3)  (* 1 C4)  (* 1 C5)  (* 0 C6)  (* 0 C7)  (* 0 C8)  (* 0 C9)  (* 0 C10) ))  (>= 703 (+  (* 6 C1)  (* 3 C2)  (* 3 C3)  (* 1 C4)  (* 1 C5)  (* 0 C6)  (* 0 C7)  (* 0 C8)  (* 0 C9)  (* 0 C10) ))  (>= 756 (+  (* 6 C1)  (* 3 C2)  (* 3 C3)  (* 2 C4)  (* 1 C5)  (* 0 C6)  (* 0 C7)  (* 0 C8)  (* 0 C9)  (* 0 C10) ))  (>= 789 (+  (* 7 C1)  (* 3 C2)  (* 3 C3)  (* 2 C4)  (* 1 C5)  (* 0 C6)  (* 0 C7)  (* 0 C8)  (* 0 C9)  (* 0 C10) ))  (>= 1008 (+  (* 8 C1)  (* 4 C2)  (* 3 C3)  (* 2 C4)  (* 1 C5)  (* 0 C6)  (* 0 C7)  (* 0 C8)  (* 0 C9)  (* 0 C10) ))  (>= 1035 (+  (* 9 C1)  (* 4 C2)  (* 3 C3)  (* 2 C4)  (* 1 C5)  (* 0 C6)  (* 0 C7)  (* 0 C8)  (* 0 C9)  (* 0 C10) ))  (>= 1052 (+  (* 9 C1)  (* 4 C2)  (* 4 C3)  (* 2 C4)  (* 1 C5)  (* 0 C6)  (* 0 C7)  (* 0 C8)  (* 0 C9)  (* 0 C10) ))  (>= 1134 (+  (* 9 C1)  (* 5 C2)  (* 4 C3)  (* 2 C4)  (* 1 C5)  (* 0 C6)  (* 0 C7)  (* 0 C8)  (* 0 C9)  (* 0 C10) ))  (>= 1212 (+  (* 10 C1)  (* 5 C2)  (* 4 C3)  (* 2 C4)  (* 1 C5)  (* 0 C6)  (* 0 C7)  (* 0 C8)  (* 0 C9)  (* 0 C10) )) ) ( or  (>= 504 (+  (* 4 C1)  (* 2 C2)  (* 2 C3)  (* 1 C4)  (* 1 C5)  (* 1 C6)  (* 0 C7)  (* 0 C8)  (* 0 C9)  (* 0 C10) ))  (>= 526 (+  (* 5 C1)  (* 2 C2)  (* 2 C3)  (* 1 C4)  (* 1 C5)  (* 1 C6)  (* 0 C7)  (* 0 C8)  (* 0 C9)  (* 0 C10) ))  (>= 630 (+  (* 5 C1)  (* 3 C2)  (* 2 C3)  (* 1 C4)  (* 1 C5)  (* 1 C6)  (* 0 C7)  (* 0 C8)  (* 0 C9)  (* 0 C10) ))  (>= 690 (+  (* 6 C1)  (* 3 C2)  (* 2 C3)  (* 1 C4)  (* 1 C5)  (* 1 C6)  (* 0 C7)  (* 0 C8)  (* 0 C9)  (* 0 C10) ))  (>= 703 (+  (* 6 C1)  (* 3 C2)  (* 3 C3)  (* 1 C4)  (* 1 C5)  (* 1 C6)  (* 0 C7)  (* 0 C8)  (* 0 C9)  (* 0 C10) ))  (>= 756 (+  (* 6 C1)  (* 3 C2)  (* 3 C3)  (* 2 C4)  (* 1 C5)  (* 1 C6)  (* 0 C7)  (* 0 C8)  (* 0 C9)  (* 0 C10) ))  (>= 789 (+  (* 7 C1)  (* 3 C2)  (* 3 C3)  (* 2 C4)  (* 1 C5)  (* 1 C6)  (* 0 C7)  (* 0 C8)  (* 0 C9)  (* 0 C10) ))  (>= 1008 (+  (* 8 C1)  (* 4 C2)  (* 3 C3)  (* 2 C4)  (* 1 C5)  (* 1 C6)  (* 0 C7)  (* 0 C8)  (* 0 C9)  (* 0 C10) ))  (>= 1035 (+  (* 9 C1)  (* 4 C2)  (* 3 C3)  (* 2 C4)  (* 1 C5)  (* 1 C6)  (* 0 C7)  (* 0 C8)  (* 0 C9)  (* 0 C10) ))  (>= 1052 (+  (* 9 C1)  (* 4 C2)  (* 4 C3)  (* 2 C4)  (* 1 C5)  (* 1 C6)  (* 0 C7)  (* 0 C8)  (* 0 C9)  (* 0 C10) ))  (>= 1134 (+  (* 9 C1)  (* 5 C2)  (* 4 C3)  (* 2 C4)  (* 1 C5)  (* 1 C6)  (* 0 C7)  (* 0 C8)  (* 0 C9)  (* 0 C10) ))  (>= 1212 (+  (* 10 C1)  (* 5 C2)  (* 4 C3)  (* 2 C4)  (* 1 C5)  (* 1 C6)  (* 0 C7)  (* 0 C8)  (* 0 C9)  (* 0 C10) ))  (>= 1260 (+  (* 10 C1)  (* 5 C2)  (* 4 C3)  (* 2 C4)  (* 2 C5)  (* 1 C6)  (* 0 C7)  (* 0 C8)  (* 0 C9)  (* 0 C10) ))  (>= 1315 (+  (* 11 C1)  (* 5 C2)  (* 4 C3)  (* 2 C4)  (* 2 C5)  (* 1 C6)  (* 0 C7)  (* 0 C8)  (* 0 C9)  (* 0 C10) ))  (>= 1380 (+  (* 11 C1)  (* 6 C2)  (* 4 C3)  (* 2 C4)  (* 2 C5)  (* 1 C6)  (* 0 C7)  (* 0 C8)  (* 0 C9)  (* 0 C10) ))  (>= 1386 (+  (* 11 C1)  (* 6 C2)  (* 5 C3)  (* 2 C4)  (* 2 C5)  (* 1 C6)  (* 0 C7)  (* 0 C8)  (* 0 C9)  (* 0 C10) ))  (>= 1406 (+  (* 12 C1)  (* 6 C2)  (* 5 C3)  (* 2 C4)  (* 2 C5)  (* 1 C6)  (* 0 C7)  (* 0 C8)  (* 0 C9)  (* 0 C10) ))  (>= 1512 (+  (* 12 C1)  (* 6 C2)  (* 5 C3)  (* 3 C4)  (* 2 C5)  (* 1 C6)  (* 0 C7)  (* 0 C8)  (* 0 C9)  (* 0 C10) ))  (>= 1578 (+  (* 13 C1)  (* 6 C2)  (* 5 C3)  (* 3 C4)  (* 2 C5)  (* 1 C6)  (* 0 C7)  (* 0 C8)  (* 0 C9)  (* 0 C10) ))  (>= 1638 (+  (* 13 C1)  (* 7 C2)  (* 5 C3)  (* 3 C4)  (* 2 C5)  (* 1 C6)  (* 0 C7)  (* 0 C8)  (* 0 C9)  (* 0 C10) ))  (>= 1725 (+  (* 14 C1)  (* 7 C2)  (* 5 C3)  (* 3 C4)  (* 2 C5)  (* 1 C6)  (* 0 C7)  (* 0 C8)  (* 0 C9)  (* 0 C10) ))  (>= 1764 (+  (* 14 C1)  (* 7 C2)  (* 6 C3)  (* 3 C4)  (* 2 C5)  (* 1 C6)  (* 0 C7)  (* 0 C8)  (* 0 C9)  (* 0 C10) ))  (>= 1798 (+  (* 15 C1)  (* 7 C2)  (* 6 C3)  (* 3 C4)  (* 2 C5)  (* 1 C6)  (* 0 C7)  (* 0 C8)  (* 0 C9)  (* 0 C10) )) ) ( or  (>= 504 (+  (* 4 C1)  (* 2 C2)  (* 2 C3)  (* 1 C4)  (* 1 C5)  (* 1 C6)  (* 1 C7)  (* 0 C8)  (* 0 C9)  (* 0 C10) ))  (>= 526 (+  (* 5 C1)  (* 2 C2)  (* 2 C3)  (* 1 C4)  (* 1 C5)  (* 1 C6)  (* 1 C7)  (* 0 C8)  (* 0 C9)  (* 0 C10) ))  (>= 630 (+  (* 5 C1)  (* 3 C2)  (* 2 C3)  (* 1 C4)  (* 1 C5)  (* 1 C6)  (* 1 C7)  (* 0 C8)  (* 0 C9)  (* 0 C10) ))  (>= 690 (+  (* 6 C1)  (* 3 C2)  (* 2 C3)  (* 1 C4)  (* 1 C5)  (* 1 C6)  (* 1 C7)  (* 0 C8)  (* 0 C9)  (* 0 C10) ))  (>= 703 (+  (* 6 C1)  (* 3 C2)  (* 3 C3)  (* 1 C4)  (* 1 C5)  (* 1 C6)  (* 1 C7)  (* 0 C8)  (* 0 C9)  (* 0 C10) ))  (>= 756 (+  (* 6 C1)  (* 3 C2)  (* 3 C3)  (* 2 C4)  (* 1 C5)  (* 1 C6)  (* 1 C7)  (* 0 C8)  (* 0 C9)  (* 0 C10) ))  (>= 789 (+  (* 7 C1)  (* 3 C2)  (* 3 C3)  (* 2 C4)  (* 1 C5)  (* 1 C6)  (* 1 C7)  (* 0 C8)  (* 0 C9)  (* 0 C10) ))  (>= 1008 (+  (* 8 C1)  (* 4 C2)  (* 3 C3)  (* 2 C4)  (* 1 C5)  (* 1 C6)  (* 1 C7)  (* 0 C8)  (* 0 C9)  (* 0 C10) ))  (>= 1035 (+  (* 9 C1)  (* 4 C2)  (* 3 C3)  (* 2 C4)  (* 1 C5)  (* 1 C6)  (* 1 C7)  (* 0 C8)  (* 0 C9)  (* 0 C10) ))  (>= 1052 (+  (* 9 C1)  (* 4 C2)  (* 4 C3)  (* 2 C4)  (* 1 C5)  (* 1 C6)  (* 1 C7)  (* 0 C8)  (* 0 C9)  (* 0 C10) ))  (>= 1134 (+  (* 9 C1)  (* 5 C2)  (* 4 C3)  (* 2 C4)  (* 1 C5)  (* 1 C6)  (* 1 C7)  (* 0 C8)  (* 0 C9)  (* 0 C10) ))  (>= 1212 (+  (* 10 C1)  (* 5 C2)  (* 4 C3)  (* 2 C4)  (* 1 C5)  (* 1 C6)  (* 1 C7)  (* 0 C8)  (* 0 C9)  (* 0 C10) ))  (>= 1260 (+  (* 10 C1)  (* 5 C2)  (* 4 C3)  (* 2 C4)  (* 2 C5)  (* 1 C6)  (* 1 C7)  (* 0 C8)  (* 0 C9)  (* 0 C10) ))  (>= 1315 (+  (* 11 C1)  (* 5 C2)  (* 4 C3)  (* 2 C4)  (* 2 C5)  (* 1 C6)  (* 1 C7)  (* 0 C8)  (* 0 C9)  (* 0 C10) ))  (>= 1380 (+  (* 11 C1)  (* 6 C2)  (* 4 C3)  (* 2 C4)  (* 2 C5)  (* 1 C6)  (* 1 C7)  (* 0 C8)  (* 0 C9)  (* 0 C10) ))  (>= 1386 (+  (* 11 C1)  (* 6 C2)  (* 5 C3)  (* 2 C4)  (* 2 C5)  (* 1 C6)  (* 1 C7)  (* 0 C8)  (* 0 C9)  (* 0 C10) ))  (>= 1406 (+  (* 12 C1)  (* 6 C2)  (* 5 C3)  (* 2 C4)  (* 2 C5)  (* 1 C6)  (* 1 C7)  (* 0 C8)  (* 0 C9)  (* 0 C10) ))  (>= 1512 (+  (* 12 C1)  (* 6 C2)  (* 5 C3)  (* 3 C4)  (* 2 C5)  (* 1 C6)  (* 1 C7)  (* 0 C8)  (* 0 C9)  (* 0 C10) ))  (>= 1578 (+  (* 13 C1)  (* 6 C2)  (* 5 C3)  (* 3 C4)  (* 2 C5)  (* 1 C6)  (* 1 C7)  (* 0 C8)  (* 0 C9)  (* 0 C10) ))  (>= 1638 (+  (* 13 C1)  (* 7 C2)  (* 5 C3)  (* 3 C4)  (* 2 C5)  (* 1 C6)  (* 1 C7)  (* 0 C8)  (* 0 C9)  (* 0 C10) ))  (>= 1725 (+  (* 14 C1)  (* 7 C2)  (* 5 C3)  (* 3 C4)  (* 2 C5)  (* 1 C6)  (* 1 C7)  (* 0 C8)  (* 0 C9)  (* 0 C10) ))  (>= 1764 (+  (* 14 C1)  (* 7 C2)  (* 6 C3)  (* 3 C4)  (* 2 C5)  (* 1 C6)  (* 1 C7)  (* 0 C8)  (* 0 C9)  (* 0 C10) ))  (>= 1798 (+  (* 15 C1)  (* 7 C2)  (* 6 C3)  (* 3 C4)  (* 2 C5)  (* 1 C6)  (* 1 C7)  (* 0 C8)  (* 0 C9)  (* 0 C10) ))  (>= 1841 (+  (* 15 C1)  (* 7 C2)  (* 6 C3)  (* 3 C4)  (* 2 C5)  (* 2 C6)  (* 1 C7)  (* 0 C8)  (* 0 C9)  (* 0 C10) ))  (>= 2016 (+  (* 16 C1)  (* 8 C2)  (* 6 C3)  (* 3 C4)  (* 2 C5)  (* 2 C6)  (* 1 C7)  (* 0 C8)  (* 0 C9)  (* 0 C10) ))  (>= 2070 (+  (* 17 C1)  (* 8 C2)  (* 6 C3)  (* 3 C4)  (* 2 C5)  (* 2 C6)  (* 1 C7)  (* 0 C8)  (* 0 C9)  (* 0 C10) ))  (>= 2104 (+  (* 17 C1)  (* 8 C2)  (* 7 C3)  (* 3 C4)  (* 2 C5)  (* 2 C6)  (* 1 C7)  (* 0 C8)  (* 0 C9)  (* 0 C10) ))  (>= 2109 (+  (* 17 C1)  (* 9 C2)  (* 7 C3)  (* 3 C4)  (* 2 C5)  (* 2 C6)  (* 1 C7)  (* 0 C8)  (* 0 C9)  (* 0 C10) ))  (>= 2268 (+  (* 18 C1)  (* 9 C2)  (* 7 C3)  (* 4 C4)  (* 2 C5)  (* 2 C6)  (* 1 C7)  (* 0 C8)  (* 0 C9)  (* 0 C10) ))  (>= 2367 (+  (* 19 C1)  (* 9 C2)  (* 7 C3)  (* 4 C4)  (* 2 C5)  (* 2 C6)  (* 1 C7)  (* 0 C8)  (* 0 C9)  (* 0 C10) ))  (>= 2394 (+  (* 19 C1)  (* 10 C2)  (* 7 C3)  (* 4 C4)  (* 2 C5)  (* 2 C6)  (* 1 C7)  (* 0 C8)  (* 0 C9)  (* 0 C10) ))  (>= 2415 (+  (* 20 C1)  (* 10 C2)  (* 7 C3)  (* 4 C4)  (* 2 C5)  (* 2 C6)  (* 1 C7)  (* 0 C8)  (* 0 C9)  (* 0 C10) ))  (>= 2424 (+  (* 20 C1)  (* 10 C2)  (* 8 C3)  (* 4 C4)  (* 2 C5)  (* 2 C6)  (* 1 C7)  (* 0 C8)  (* 0 C9)  (* 0 C10) ))  (>= 2520 (+  (* 20 C1)  (* 10 C2)  (* 8 C3)  (* 4 C4)  (* 3 C5)  (* 2 C6)  (* 1 C7)  (* 0 C8)  (* 0 C9)  (* 0 C10) ))  (>= 2630 (+  (* 21 C1)  (* 10 C2)  (* 8 C3)  (* 4 C4)  (* 3 C5)  (* 2 C6)  (* 1 C7)  (* 0 C8)  (* 0 C9)  (* 0 C10) ))  (>= 2646 (+  (* 21 C1)  (* 11 C2)  (* 8 C3)  (* 4 C4)  (* 3 C5)  (* 2 C6)  (* 1 C7)  (* 0 C8)  (* 0 C9)  (* 0 C10) ))  (>= 2760 (+  (* 22 C1)  (* 11 C2)  (* 8 C3)  (* 4 C4)  (* 3 C5)  (* 2 C6)  (* 1 C7)  (* 0 C8)  (* 0 C9)  (* 0 C10) ))  (>= 2772 (+  (* 22 C1)  (* 11 C2)  (* 9 C3)  (* 4 C4)  (* 3 C5)  (* 2 C6)  (* 1 C7)  (* 0 C8)  (* 0 C9)  (* 0 C10) ))  (>= 2812 (+  (* 23 C1)  (* 11 C2)  (* 9 C3)  (* 4 C4)  (* 3 C5)  (* 2 C6)  (* 1 C7)  (* 0 C8)  (* 0 C9)  (* 0 C10) ))  (>= 2893 (+  (* 23 C1)  (* 11 C2)  (* 9 C3)  (* 5 C4)  (* 3 C5)  (* 2 C6)  (* 1 C7)  (* 0 C8)  (* 0 C9)  (* 0 C10) ))  (>= 2897 (+  (* 23 C1)  (* 12 C2)  (* 9 C3)  (* 5 C4)  (* 3 C5)  (* 2 C6)  (* 1 C7)  (* 0 C8)  (* 0 C9)  (* 0 C10) )) ) ( or  (>= 504 (+  (* 4 C1)  (* 2 C2)  (* 2 C3)  (* 1 C4)  (* 1 C5)  (* 1 C6)  (* 1 C7)  (* 1 C8)  (* 0 C9)  (* 0 C10) ))  (>= 526 (+  (* 5 C1)  (* 2 C2)  (* 2 C3)  (* 1 C4)  (* 1 C5)  (* 1 C6)  (* 1 C7)  (* 1 C8)  (* 0 C9)  (* 0 C10) ))  (>= 630 (+  (* 5 C1)  (* 3 C2)  (* 2 C3)  (* 1 C4)  (* 1 C5)  (* 1 C6)  (* 1 C7)  (* 1 C8)  (* 0 C9)  (* 0 C10) ))  (>= 690 (+  (* 6 C1)  (* 3 C2)  (* 2 C3)  (* 1 C4)  (* 1 C5)  (* 1 C6)  (* 1 C7)  (* 1 C8)  (* 0 C9)  (* 0 C10) ))  (>= 703 (+  (* 6 C1)  (* 3 C2)  (* 3 C3)  (* 1 C4)  (* 1 C5)  (* 1 C6)  (* 1 C7)  (* 1 C8)  (* 0 C9)  (* 0 C10) ))  (>= 756 (+  (* 6 C1)  (* 3 C2)  (* 3 C3)  (* 2 C4)  (* 1 C5)  (* 1 C6)  (* 1 C7)  (* 1 C8)  (* 0 C9)  (* 0 C10) ))  (>= 789 (+  (* 7 C1)  (* 3 C2)  (* 3 C3)  (* 2 C4)  (* 1 C5)  (* 1 C6)  (* 1 C7)  (* 1 C8)  (* 0 C9)  (* 0 C10) ))  (>= 1008 (+  (* 8 C1)  (* 4 C2)  (* 3 C3)  (* 2 C4)  (* 1 C5)  (* 1 C6)  (* 1 C7)  (* 1 C8)  (* 0 C9)  (* 0 C10) ))  (>= 1035 (+  (* 9 C1)  (* 4 C2)  (* 3 C3)  (* 2 C4)  (* 1 C5)  (* 1 C6)  (* 1 C7)  (* 1 C8)  (* 0 C9)  (* 0 C10) ))  (>= 1052 (+  (* 9 C1)  (* 4 C2)  (* 4 C3)  (* 2 C4)  (* 1 C5)  (* 1 C6)  (* 1 C7)  (* 1 C8)  (* 0 C9)  (* 0 C10) ))  (>= 1134 (+  (* 9 C1)  (* 5 C2)  (* 4 C3)  (* 2 C4)  (* 1 C5)  (* 1 C6)  (* 1 C7)  (* 1 C8)  (* 0 C9)  (* 0 C10) ))  (>= 1212 (+  (* 10 C1)  (* 5 C2)  (* 4 C3)  (* 2 C4)  (* 1 C5)  (* 1 C6)  (* 1 C7)  (* 1 C8)  (* 0 C9)  (* 0 C10) ))  (>= 1260 (+  (* 10 C1)  (* 5 C2)  (* 4 C3)  (* 2 C4)  (* 2 C5)  (* 1 C6)  (* 1 C7)  (* 1 C8)  (* 0 C9)  (* 0 C10) ))  (>= 1315 (+  (* 11 C1)  (* 5 C2)  (* 4 C3)  (* 2 C4)  (* 2 C5)  (* 1 C6)  (* 1 C7)  (* 1 C8)  (* 0 C9)  (* 0 C10) ))  (>= 1380 (+  (* 11 C1)  (* 6 C2)  (* 4 C3)  (* 2 C4)  (* 2 C5)  (* 1 C6)  (* 1 C7)  (* 1 C8)  (* 0 C9)  (* 0 C10) ))  (>= 1386 (+  (* 11 C1)  (* 6 C2)  (* 5 C3)  (* 2 C4)  (* 2 C5)  (* 1 C6)  (* 1 C7)  (* 1 C8)  (* 0 C9)  (* 0 C10) ))  (>= 1406 (+  (* 12 C1)  (* 6 C2)  (* 5 C3)  (* 2 C4)  (* 2 C5)  (* 1 C6)  (* 1 C7)  (* 1 C8)  (* 0 C9)  (* 0 C10) ))  (>= 1512 (+  (* 12 C1)  (* 6 C2)  (* 5 C3)  (* 3 C4)  (* 2 C5)  (* 1 C6)  (* 1 C7)  (* 1 C8)  (* 0 C9)  (* 0 C10) ))  (>= 1578 (+  (* 13 C1)  (* 6 C2)  (* 5 C3)  (* 3 C4)  (* 2 C5)  (* 1 C6)  (* 1 C7)  (* 1 C8)  (* 0 C9)  (* 0 C10) ))  (>= 1638 (+  (* 13 C1)  (* 7 C2)  (* 5 C3)  (* 3 C4)  (* 2 C5)  (* 1 C6)  (* 1 C7)  (* 1 C8)  (* 0 C9)  (* 0 C10) ))  (>= 1725 (+  (* 14 C1)  (* 7 C2)  (* 5 C3)  (* 3 C4)  (* 2 C5)  (* 1 C6)  (* 1 C7)  (* 1 C8)  (* 0 C9)  (* 0 C10) ))  (>= 1764 (+  (* 14 C1)  (* 7 C2)  (* 6 C3)  (* 3 C4)  (* 2 C5)  (* 1 C6)  (* 1 C7)  (* 1 C8)  (* 0 C9)  (* 0 C10) ))  (>= 1798 (+  (* 15 C1)  (* 7 C2)  (* 6 C3)  (* 3 C4)  (* 2 C5)  (* 1 C6)  (* 1 C7)  (* 1 C8)  (* 0 C9)  (* 0 C10) ))  (>= 1841 (+  (* 15 C1)  (* 7 C2)  (* 6 C3)  (* 3 C4)  (* 2 C5)  (* 2 C6)  (* 1 C7)  (* 1 C8)  (* 0 C9)  (* 0 C10) ))  (>= 2016 (+  (* 16 C1)  (* 8 C2)  (* 6 C3)  (* 3 C4)  (* 2 C5)  (* 2 C6)  (* 1 C7)  (* 1 C8)  (* 0 C9)  (* 0 C10) ))  (>= 2070 (+  (* 17 C1)  (* 8 C2)  (* 6 C3)  (* 3 C4)  (* 2 C5)  (* 2 C6)  (* 1 C7)  (* 1 C8)  (* 0 C9)  (* 0 C10) ))  (>= 2104 (+  (* 17 C1)  (* 8 C2)  (* 7 C3)  (* 3 C4)  (* 2 C5)  (* 2 C6)  (* 1 C7)  (* 1 C8)  (* 0 C9)  (* 0 C10) ))  (>= 2109 (+  (* 17 C1)  (* 9 C2)  (* 7 C3)  (* 3 C4)  (* 2 C5)  (* 2 C6)  (* 1 C7)  (* 1 C8)  (* 0 C9)  (* 0 C10) ))  (>= 2268 (+  (* 18 C1)  (* 9 C2)  (* 7 C3)  (* 4 C4)  (* 2 C5)  (* 2 C6)  (* 1 C7)  (* 1 C8)  (* 0 C9)  (* 0 C10) ))  (>= 2367 (+  (* 19 C1)  (* 9 C2)  (* 7 C3)  (* 4 C4)  (* 2 C5)  (* 2 C6)  (* 1 C7)  (* 1 C8)  (* 0 C9)  (* 0 C10) ))  (>= 2394 (+  (* 19 C1)  (* 10 C2)  (* 7 C3)  (* 4 C4)  (* 2 C5)  (* 2 C6)  (* 1 C7)  (* 1 C8)  (* 0 C9)  (* 0 C10) ))  (>= 2415 (+  (* 20 C1)  (* 10 C2)  (* 7 C3)  (* 4 C4)  (* 2 C5)  (* 2 C6)  (* 1 C7)  (* 1 C8)  (* 0 C9)  (* 0 C10) ))  (>= 2424 (+  (* 20 C1)  (* 10 C2)  (* 8 C3)  (* 4 C4)  (* 2 C5)  (* 2 C6)  (* 1 C7)  (* 1 C8)  (* 0 C9)  (* 0 C10) ))  (>= 2520 (+  (* 20 C1)  (* 10 C2)  (* 8 C3)  (* 4 C4)  (* 3 C5)  (* 2 C6)  (* 1 C7)  (* 1 C8)  (* 0 C9)  (* 0 C10) ))  (>= 2630 (+  (* 21 C1)  (* 10 C2)  (* 8 C3)  (* 4 C4)  (* 3 C5)  (* 2 C6)  (* 1 C7)  (* 1 C8)  (* 0 C9)  (* 0 C10) ))  (>= 2646 (+  (* 21 C1)  (* 11 C2)  (* 8 C3)  (* 4 C4)  (* 3 C5)  (* 2 C6)  (* 1 C7)  (* 1 C8)  (* 0 C9)  (* 0 C10) ))  (>= 2760 (+  (* 22 C1)  (* 11 C2)  (* 8 C3)  (* 4 C4)  (* 3 C5)  (* 2 C6)  (* 1 C7)  (* 1 C8)  (* 0 C9)  (* 0 C10) ))  (>= 2772 (+  (* 22 C1)  (* 11 C2)  (* 9 C3)  (* 4 C4)  (* 3 C5)  (* 2 C6)  (* 1 C7)  (* 1 C8)  (* 0 C9)  (* 0 C10) ))  (>= 2812 (+  (* 23 C1)  (* 11 C2)  (* 9 C3)  (* 4 C4)  (* 3 C5)  (* 2 C6)  (* 1 C7)  (* 1 C8)  (* 0 C9)  (* 0 C10) ))  (>= 2893 (+  (* 23 C1)  (* 11 C2)  (* 9 C3)  (* 5 C4)  (* 3 C5)  (* 2 C6)  (* 1 C7)  (* 1 C8)  (* 0 C9)  (* 0 C10) ))  (>= 2897 (+  (* 23 C1)  (* 12 C2)  (* 9 C3)  (* 5 C4)  (* 3 C5)  (* 2 C6)  (* 1 C7)  (* 1 C8)  (* 0 C9)  (* 0 C10) ))  (>= 3402 (+  (* 27 C1)  (* 13 C2)  (* 10 C3)  (* 5 C4)  (* 3 C5)  (* 2 C6)  (* 2 C7)  (* 1 C8)  (* 0 C9)  (* 0 C10) ))  (>= 3419 (+  (* 28 C1)  (* 13 C2)  (* 10 C3)  (* 5 C4)  (* 3 C5)  (* 2 C6)  (* 2 C7)  (* 1 C8)  (* 0 C9)  (* 0 C10) ))  (>= 3450 (+  (* 28 C1)  (* 14 C2)  (* 10 C3)  (* 5 C4)  (* 3 C5)  (* 2 C6)  (* 2 C7)  (* 1 C8)  (* 0 C9)  (* 0 C10) ))  (>= 3515 (+  (* 28 C1)  (* 14 C2)  (* 11 C3)  (* 5 C4)  (* 3 C5)  (* 2 C6)  (* 2 C7)  (* 1 C8)  (* 0 C9)  (* 0 C10) ))  (>= 3528 (+  (* 28 C1)  (* 14 C2)  (* 11 C3)  (* 6 C4)  (* 3 C5)  (* 2 C6)  (* 2 C7)  (* 1 C8)  (* 0 C9)  (* 0 C10) ))  (>= 3596 (+  (* 29 C1)  (* 14 C2)  (* 11 C3)  (* 6 C4)  (* 3 C5)  (* 2 C6)  (* 2 C7)  (* 1 C8)  (* 0 C9)  (* 0 C10) ))  (>= 3636 (+  (* 29 C1)  (* 14 C2)  (* 11 C3)  (* 6 C4)  (* 3 C5)  (* 3 C6)  (* 2 C7)  (* 1 C8)  (* 0 C9)  (* 0 C10) ))  (>= 3654 (+  (* 29 C1)  (* 14 C2)  (* 11 C3)  (* 6 C4)  (* 4 C5)  (* 3 C6)  (* 2 C7)  (* 1 C8)  (* 0 C9)  (* 0 C10) ))  (>= 3682 (+  (* 30 C1)  (* 14 C2)  (* 11 C3)  (* 6 C4)  (* 4 C5)  (* 3 C6)  (* 2 C7)  (* 1 C8)  (* 0 C9)  (* 0 C10) ))  (>= 3780 (+  (* 30 C1)  (* 15 C2)  (* 11 C3)  (* 6 C4)  (* 4 C5)  (* 3 C6)  (* 2 C7)  (* 1 C8)  (* 0 C9)  (* 0 C10) ))  (>= 3795 (+  (* 31 C1)  (* 15 C2)  (* 11 C3)  (* 6 C4)  (* 4 C5)  (* 3 C6)  (* 2 C7)  (* 1 C8)  (* 0 C9)  (* 0 C10) ))  (>= 3906 (+  (* 31 C1)  (* 15 C2)  (* 12 C3)  (* 6 C4)  (* 4 C5)  (* 3 C6)  (* 2 C7)  (* 1 C8)  (* 0 C9)  (* 0 C10) ))  (>= 3945 (+  (* 32 C1)  (* 15 C2)  (* 12 C3)  (* 6 C4)  (* 4 C5)  (* 3 C6)  (* 2 C7)  (* 1 C8)  (* 0 C9)  (* 0 C10) ))  (>= 4032 (+  (* 32 C1)  (* 16 C2)  (* 12 C3)  (* 6 C4)  (* 4 C5)  (* 3 C6)  (* 2 C7)  (* 1 C8)  (* 0 C9)  (* 0 C10) ))  (>= 4115 (+  (* 33 C1)  (* 16 C2)  (* 12 C3)  (* 6 C4)  (* 4 C5)  (* 3 C6)  (* 2 C7)  (* 1 C8)  (* 0 C9)  (* 0 C10) )) ) ( or  (>= 504 (+  (* 4 C1)  (* 2 C2)  (* 2 C3)  (* 1 C4)  (* 1 C5)  (* 1 C6)  (* 1 C7)  (* 1 C8)  (* 1 C9)  (* 0 C10) ))  (>= 526 (+  (* 5 C1)  (* 2 C2)  (* 2 C3)  (* 1 C4)  (* 1 C5)  (* 1 C6)  (* 1 C7)  (* 1 C8)  (* 1 C9)  (* 0 C10) ))  (>= 630 (+  (* 5 C1)  (* 3 C2)  (* 2 C3)  (* 1 C4)  (* 1 C5)  (* 1 C6)  (* 1 C7)  (* 1 C8)  (* 1 C9)  (* 0 C10) ))  (>= 690 (+  (* 6 C1)  (* 3 C2)  (* 2 C3)  (* 1 C4)  (* 1 C5)  (* 1 C6)  (* 1 C7)  (* 1 C8)  (* 1 C9)  (* 0 C10) ))  (>= 703 (+  (* 6 C1)  (* 3 C2)  (* 3 C3)  (* 1 C4)  (* 1 C5)  (* 1 C6)  (* 1 C7)  (* 1 C8)  (* 1 C9)  (* 0 C10) ))  (>= 756 (+  (* 6 C1)  (* 3 C2)  (* 3 C3)  (* 2 C4)  (* 1 C5)  (* 1 C6)  (* 1 C7)  (* 1 C8)  (* 1 C9)  (* 0 C10) ))  (>= 789 (+  (* 7 C1)  (* 3 C2)  (* 3 C3)  (* 2 C4)  (* 1 C5)  (* 1 C6)  (* 1 C7)  (* 1 C8)  (* 1 C9)  (* 0 C10) ))  (>= 1008 (+  (* 8 C1)  (* 4 C2)  (* 3 C3)  (* 2 C4)  (* 1 C5)  (* 1 C6)  (* 1 C7)  (* 1 C8)  (* 1 C9)  (* 0 C10) ))  (>= 1035 (+  (* 9 C1)  (* 4 C2)  (* 3 C3)  (* 2 C4)  (* 1 C5)  (* 1 C6)  (* 1 C7)  (* 1 C8)  (* 1 C9)  (* 0 C10) ))  (>= 1052 (+  (* 9 C1)  (* 4 C2)  (* 4 C3)  (* 2 C4)  (* 1 C5)  (* 1 C6)  (* 1 C7)  (* 1 C8)  (* 1 C9)  (* 0 C10) ))  (>= 1134 (+  (* 9 C1)  (* 5 C2)  (* 4 C3)  (* 2 C4)  (* 1 C5)  (* 1 C6)  (* 1 C7)  (* 1 C8)  (* 1 C9)  (* 0 C10) ))  (>= 1212 (+  (* 10 C1)  (* 5 C2)  (* 4 C3)  (* 2 C4)  (* 1 C5)  (* 1 C6)  (* 1 C7)  (* 1 C8)  (* 1 C9)  (* 0 C10) ))  (>= 1260 (+  (* 10 C1)  (* 5 C2)  (* 4 C3)  (* 2 C4)  (* 2 C5)  (* 1 C6)  (* 1 C7)  (* 1 C8)  (* 1 C9)  (* 0 C10) ))  (>= 1315 (+  (* 11 C1)  (* 5 C2)  (* 4 C3)  (* 2 C4)  (* 2 C5)  (* 1 C6)  (* 1 C7)  (* 1 C8)  (* 1 C9)  (* 0 C10) ))  (>= 1380 (+  (* 11 C1)  (* 6 C2)  (* 4 C3)  (* 2 C4)  (* 2 C5)  (* 1 C6)  (* 1 C7)  (* 1 C8)  (* 1 C9)  (* 0 C10) ))  (>= 1386 (+  (* 11 C1)  (* 6 C2)  (* 5 C3)  (* 2 C4)  (* 2 C5)  (* 1 C6)  (* 1 C7)  (* 1 C8)  (* 1 C9)  (* 0 C10) ))  (>= 1406 (+  (* 12 C1)  (* 6 C2)  (* 5 C3)  (* 2 C4)  (* 2 C5)  (* 1 C6)  (* 1 C7)  (* 1 C8)  (* 1 C9)  (* 0 C10) ))  (>= 1512 (+  (* 12 C1)  (* 6 C2)  (* 5 C3)  (* 3 C4)  (* 2 C5)  (* 1 C6)  (* 1 C7)  (* 1 C8)  (* 1 C9)  (* 0 C10) ))  (>= 1578 (+  (* 13 C1)  (* 6 C2)  (* 5 C3)  (* 3 C4)  (* 2 C5)  (* 1 C6)  (* 1 C7)  (* 1 C8)  (* 1 C9)  (* 0 C10) ))  (>= 1638 (+  (* 13 C1)  (* 7 C2)  (* 5 C3)  (* 3 C4)  (* 2 C5)  (* 1 C6)  (* 1 C7)  (* 1 C8)  (* 1 C9)  (* 0 C10) ))  (>= 1725 (+  (* 14 C1)  (* 7 C2)  (* 5 C3)  (* 3 C4)  (* 2 C5)  (* 1 C6)  (* 1 C7)  (* 1 C8)  (* 1 C9)  (* 0 C10) ))  (>= 1764 (+  (* 14 C1)  (* 7 C2)  (* 6 C3)  (* 3 C4)  (* 2 C5)  (* 1 C6)  (* 1 C7)  (* 1 C8)  (* 1 C9)  (* 0 C10) ))  (>= 1798 (+  (* 15 C1)  (* 7 C2)  (* 6 C3)  (* 3 C4)  (* 2 C5)  (* 1 C6)  (* 1 C7)  (* 1 C8)  (* 1 C9)  (* 0 C10) ))  (>= 1841 (+  (* 15 C1)  (* 7 C2)  (* 6 C3)  (* 3 C4)  (* 2 C5)  (* 2 C6)  (* 1 C7)  (* 1 C8)  (* 1 C9)  (* 0 C10) ))  (>= 2016 (+  (* 16 C1)  (* 8 C2)  (* 6 C3)  (* 3 C4)  (* 2 C5)  (* 2 C6)  (* 1 C7)  (* 1 C8)  (* 1 C9)  (* 0 C10) ))  (>= 2070 (+  (* 17 C1)  (* 8 C2)  (* 6 C3)  (* 3 C4)  (* 2 C5)  (* 2 C6)  (* 1 C7)  (* 1 C8)  (* 1 C9)  (* 0 C10) ))  (>= 2104 (+  (* 17 C1)  (* 8 C2)  (* 7 C3)  (* 3 C4)  (* 2 C5)  (* 2 C6)  (* 1 C7)  (* 1 C8)  (* 1 C9)  (* 0 C10) ))  (>= 2109 (+  (* 17 C1)  (* 9 C2)  (* 7 C3)  (* 3 C4)  (* 2 C5)  (* 2 C6)  (* 1 C7)  (* 1 C8)  (* 1 C9)  (* 0 C10) ))  (>= 2268 (+  (* 18 C1)  (* 9 C2)  (* 7 C3)  (* 4 C4)  (* 2 C5)  (* 2 C6)  (* 1 C7)  (* 1 C8)  (* 1 C9)  (* 0 C10) ))  (>= 2367 (+  (* 19 C1)  (* 9 C2)  (* 7 C3)  (* 4 C4)  (* 2 C5)  (* 2 C6)  (* 1 C7)  (* 1 C8)  (* 1 C9)  (* 0 C10) ))  (>= 2394 (+  (* 19 C1)  (* 10 C2)  (* 7 C3)  (* 4 C4)  (* 2 C5)  (* 2 C6)  (* 1 C7)  (* 1 C8)  (* 1 C9)  (* 0 C10) ))  (>= 2415 (+  (* 20 C1)  (* 10 C2)  (* 7 C3)  (* 4 C4)  (* 2 C5)  (* 2 C6)  (* 1 C7)  (* 1 C8)  (* 1 C9)  (* 0 C10) ))  (>= 2424 (+  (* 20 C1)  (* 10 C2)  (* 8 C3)  (* 4 C4)  (* 2 C5)  (* 2 C6)  (* 1 C7)  (* 1 C8)  (* 1 C9)  (* 0 C10) ))  (>= 2520 (+  (* 20 C1)  (* 10 C2)  (* 8 C3)  (* 4 C4)  (* 3 C5)  (* 2 C6)  (* 1 C7)  (* 1 C8)  (* 1 C9)  (* 0 C10) ))  (>= 2630 (+  (* 21 C1)  (* 10 C2)  (* 8 C3)  (* 4 C4)  (* 3 C5)  (* 2 C6)  (* 1 C7)  (* 1 C8)  (* 1 C9)  (* 0 C10) ))  (>= 2646 (+  (* 21 C1)  (* 11 C2)  (* 8 C3)  (* 4 C4)  (* 3 C5)  (* 2 C6)  (* 1 C7)  (* 1 C8)  (* 1 C9)  (* 0 C10) ))  (>= 2760 (+  (* 22 C1)  (* 11 C2)  (* 8 C3)  (* 4 C4)  (* 3 C5)  (* 2 C6)  (* 1 C7)  (* 1 C8)  (* 1 C9)  (* 0 C10) ))  (>= 2772 (+  (* 22 C1)  (* 11 C2)  (* 9 C3)  (* 4 C4)  (* 3 C5)  (* 2 C6)  (* 1 C7)  (* 1 C8)  (* 1 C9)  (* 0 C10) ))  (>= 2812 (+  (* 23 C1)  (* 11 C2)  (* 9 C3)  (* 4 C4)  (* 3 C5)  (* 2 C6)  (* 1 C7)  (* 1 C8)  (* 1 C9)  (* 0 C10) ))  (>= 2893 (+  (* 23 C1)  (* 11 C2)  (* 9 C3)  (* 5 C4)  (* 3 C5)  (* 2 C6)  (* 1 C7)  (* 1 C8)  (* 1 C9)  (* 0 C10) ))  (>= 2897 (+  (* 23 C1)  (* 12 C2)  (* 9 C3)  (* 5 C4)  (* 3 C5)  (* 2 C6)  (* 1 C7)  (* 1 C8)  (* 1 C9)  (* 0 C10) ))  (>= 3402 (+  (* 27 C1)  (* 13 C2)  (* 10 C3)  (* 5 C4)  (* 3 C5)  (* 2 C6)  (* 2 C7)  (* 1 C8)  (* 1 C9)  (* 0 C10) ))  (>= 3419 (+  (* 28 C1)  (* 13 C2)  (* 10 C3)  (* 5 C4)  (* 3 C5)  (* 2 C6)  (* 2 C7)  (* 1 C8)  (* 1 C9)  (* 0 C10) ))  (>= 3450 (+  (* 28 C1)  (* 14 C2)  (* 10 C3)  (* 5 C4)  (* 3 C5)  (* 2 C6)  (* 2 C7)  (* 1 C8)  (* 1 C9)  (* 0 C10) ))  (>= 3515 (+  (* 28 C1)  (* 14 C2)  (* 11 C3)  (* 5 C4)  (* 3 C5)  (* 2 C6)  (* 2 C7)  (* 1 C8)  (* 1 C9)  (* 0 C10) ))  (>= 3528 (+  (* 28 C1)  (* 14 C2)  (* 11 C3)  (* 6 C4)  (* 3 C5)  (* 2 C6)  (* 2 C7)  (* 1 C8)  (* 1 C9)  (* 0 C10) ))  (>= 3596 (+  (* 29 C1)  (* 14 C2)  (* 11 C3)  (* 6 C4)  (* 3 C5)  (* 2 C6)  (* 2 C7)  (* 1 C8)  (* 1 C9)  (* 0 C10) ))  (>= 3636 (+  (* 29 C1)  (* 14 C2)  (* 11 C3)  (* 6 C4)  (* 3 C5)  (* 3 C6)  (* 2 C7)  (* 1 C8)  (* 1 C9)  (* 0 C10) ))  (>= 3654 (+  (* 29 C1)  (* 14 C2)  (* 11 C3)  (* 6 C4)  (* 4 C5)  (* 3 C6)  (* 2 C7)  (* 1 C8)  (* 1 C9)  (* 0 C10) ))  (>= 3682 (+  (* 30 C1)  (* 14 C2)  (* 11 C3)  (* 6 C4)  (* 4 C5)  (* 3 C6)  (* 2 C7)  (* 1 C8)  (* 1 C9)  (* 0 C10) ))  (>= 3780 (+  (* 30 C1)  (* 15 C2)  (* 11 C3)  (* 6 C4)  (* 4 C5)  (* 3 C6)  (* 2 C7)  (* 1 C8)  (* 1 C9)  (* 0 C10) ))  (>= 3795 (+  (* 31 C1)  (* 15 C2)  (* 11 C3)  (* 6 C4)  (* 4 C5)  (* 3 C6)  (* 2 C7)  (* 1 C8)  (* 1 C9)  (* 0 C10) ))  (>= 3906 (+  (* 31 C1)  (* 15 C2)  (* 12 C3)  (* 6 C4)  (* 4 C5)  (* 3 C6)  (* 2 C7)  (* 1 C8)  (* 1 C9)  (* 0 C10) ))  (>= 3945 (+  (* 32 C1)  (* 15 C2)  (* 12 C3)  (* 6 C4)  (* 4 C5)  (* 3 C6)  (* 2 C7)  (* 1 C8)  (* 1 C9)  (* 0 C10) ))  (>= 4032 (+  (* 32 C1)  (* 16 C2)  (* 12 C3)  (* 6 C4)  (* 4 C5)  (* 3 C6)  (* 2 C7)  (* 1 C8)  (* 1 C9)  (* 0 C10) ))  (>= 4115 (+  (* 33 C1)  (* 16 C2)  (* 12 C3)  (* 6 C4)  (* 4 C5)  (* 3 C6)  (* 2 C7)  (* 1 C8)  (* 1 C9)  (* 0 C10) ))  (>= 4140 (+  (* 33 C1)  (* 16 C2)  (* 12 C3)  (* 6 C4)  (* 4 C5)  (* 3 C6)  (* 2 C7)  (* 2 C8)  (* 1 C9)  (* 0 C10) ))  (>= 4158 (+  (* 33 C1)  (* 16 C2)  (* 13 C3)  (* 6 C4)  (* 4 C5)  (* 3 C6)  (* 2 C7)  (* 2 C8)  (* 1 C9)  (* 0 C10) ))  (>= 4208 (+  (* 34 C1)  (* 16 C2)  (* 13 C3)  (* 6 C4)  (* 4 C5)  (* 3 C6)  (* 2 C7)  (* 2 C8)  (* 1 C9)  (* 0 C10) ))  (>= 4218 (+  (* 34 C1)  (* 17 C2)  (* 13 C3)  (* 6 C4)  (* 4 C5)  (* 3 C6)  (* 2 C7)  (* 2 C8)  (* 1 C9)  (* 0 C10) ))  (>= 4410 (+  (* 35 C1)  (* 17 C2)  (* 13 C3)  (* 7 C4)  (* 4 C5)  (* 3 C6)  (* 2 C7)  (* 2 C8)  (* 1 C9)  (* 0 C10) ))  (>= 4471 (+  (* 36 C1)  (* 17 C2)  (* 13 C3)  (* 7 C4)  (* 4 C5)  (* 3 C6)  (* 2 C7)  (* 2 C8)  (* 1 C9)  (* 0 C10) ))  (>= 4485 (+  (* 36 C1)  (* 18 C2)  (* 13 C3)  (* 7 C4)  (* 4 C5)  (* 3 C6)  (* 2 C7)  (* 2 C8)  (* 1 C9)  (* 0 C10) ))  (>= 4662 (+  (* 37 C1)  (* 18 C2)  (* 14 C3)  (* 7 C4)  (* 4 C5)  (* 3 C6)  (* 2 C7)  (* 2 C8)  (* 1 C9)  (* 0 C10) ))  (>= 4714 (+  (* 38 C1)  (* 18 C2)  (* 14 C3)  (* 7 C4)  (* 4 C5)  (* 3 C6)  (* 2 C7)  (* 2 C8)  (* 1 C9)  (* 0 C10) )) ) ( or  (>= 504 (+  (* 4 C1)  (* 2 C2)  (* 2 C3)  (* 1 C4)  (* 1 C5)  (* 1 C6)  (* 1 C7)  (* 1 C8)  (* 1 C9)  (* 1 C10) ))  (>= 526 (+  (* 5 C1)  (* 2 C2)  (* 2 C3)  (* 1 C4)  (* 1 C5)  (* 1 C6)  (* 1 C7)  (* 1 C8)  (* 1 C9)  (* 1 C10) ))  (>= 630 (+  (* 5 C1)  (* 3 C2)  (* 2 C3)  (* 1 C4)  (* 1 C5)  (* 1 C6)  (* 1 C7)  (* 1 C8)  (* 1 C9)  (* 1 C10) ))  (>= 690 (+  (* 6 C1)  (* 3 C2)  (* 2 C3)  (* 1 C4)  (* 1 C5)  (* 1 C6)  (* 1 C7)  (* 1 C8)  (* 1 C9)  (* 1 C10) ))  (>= 703 (+  (* 6 C1)  (* 3 C2)  (* 3 C3)  (* 1 C4)  (* 1 C5)  (* 1 C6)  (* 1 C7)  (* 1 C8)  (* 1 C9)  (* 1 C10) ))  (>= 756 (+  (* 6 C1)  (* 3 C2)  (* 3 C3)  (* 2 C4)  (* 1 C5)  (* 1 C6)  (* 1 C7)  (* 1 C8)  (* 1 C9)  (* 1 C10) ))  (>= 789 (+  (* 7 C1)  (* 3 C2)  (* 3 C3)  (* 2 C4)  (* 1 C5)  (* 1 C6)  (* 1 C7)  (* 1 C8)  (* 1 C9)  (* 1 C10) ))  (>= 1008 (+  (* 8 C1)  (* 4 C2)  (* 3 C3)  (* 2 C4)  (* 1 C5)  (* 1 C6)  (* 1 C7)  (* 1 C8)  (* 1 C9)  (* 1 C10) ))  (>= 1035 (+  (* 9 C1)  (* 4 C2)  (* 3 C3)  (* 2 C4)  (* 1 C5)  (* 1 C6)  (* 1 C7)  (* 1 C8)  (* 1 C9)  (* 1 C10) ))  (>= 1052 (+  (* 9 C1)  (* 4 C2)  (* 4 C3)  (* 2 C4)  (* 1 C5)  (* 1 C6)  (* 1 C7)  (* 1 C8)  (* 1 C9)  (* 1 C10) ))  (>= 1134 (+  (* 9 C1)  (* 5 C2)  (* 4 C3)  (* 2 C4)  (* 1 C5)  (* 1 C6)  (* 1 C7)  (* 1 C8)  (* 1 C9)  (* 1 C10) ))  (>= 1212 (+  (* 10 C1)  (* 5 C2)  (* 4 C3)  (* 2 C4)  (* 1 C5)  (* 1 C6)  (* 1 C7)  (* 1 C8)  (* 1 C9)  (* 1 C10) ))  (>= 1260 (+  (* 10 C1)  (* 5 C2)  (* 4 C3)  (* 2 C4)  (* 2 C5)  (* 1 C6)  (* 1 C7)  (* 1 C8)  (* 1 C9)  (* 1 C10) ))  (>= 1315 (+  (* 11 C1)  (* 5 C2)  (* 4 C3)  (* 2 C4)  (* 2 C5)  (* 1 C6)  (* 1 C7)  (* 1 C8)  (* 1 C9)  (* 1 C10) ))  (>= 1380 (+  (* 11 C1)  (* 6 C2)  (* 4 C3)  (* 2 C4)  (* 2 C5)  (* 1 C6)  (* 1 C7)  (* 1 C8)  (* 1 C9)  (* 1 C10) ))  (>= 1386 (+  (* 11 C1)  (* 6 C2)  (* 5 C3)  (* 2 C4)  (* 2 C5)  (* 1 C6)  (* 1 C7)  (* 1 C8)  (* 1 C9)  (* 1 C10) ))  (>= 1406 (+  (* 12 C1)  (* 6 C2)  (* 5 C3)  (* 2 C4)  (* 2 C5)  (* 1 C6)  (* 1 C7)  (* 1 C8)  (* 1 C9)  (* 1 C10) ))  (>= 1512 (+  (* 12 C1)  (* 6 C2)  (* 5 C3)  (* 3 C4)  (* 2 C5)  (* 1 C6)  (* 1 C7)  (* 1 C8)  (* 1 C9)  (* 1 C10) ))  (>= 1578 (+  (* 13 C1)  (* 6 C2)  (* 5 C3)  (* 3 C4)  (* 2 C5)  (* 1 C6)  (* 1 C7)  (* 1 C8)  (* 1 C9)  (* 1 C10) ))  (>= 1638 (+  (* 13 C1)  (* 7 C2)  (* 5 C3)  (* 3 C4)  (* 2 C5)  (* 1 C6)  (* 1 C7)  (* 1 C8)  (* 1 C9)  (* 1 C10) ))  (>= 1725 (+  (* 14 C1)  (* 7 C2)  (* 5 C3)  (* 3 C4)  (* 2 C5)  (* 1 C6)  (* 1 C7)  (* 1 C8)  (* 1 C9)  (* 1 C10) ))  (>= 1764 (+  (* 14 C1)  (* 7 C2)  (* 6 C3)  (* 3 C4)  (* 2 C5)  (* 1 C6)  (* 1 C7)  (* 1 C8)  (* 1 C9)  (* 1 C10) ))  (>= 1798 (+  (* 15 C1)  (* 7 C2)  (* 6 C3)  (* 3 C4)  (* 2 C5)  (* 1 C6)  (* 1 C7)  (* 1 C8)  (* 1 C9)  (* 1 C10) ))  (>= 1841 (+  (* 15 C1)  (* 7 C2)  (* 6 C3)  (* 3 C4)  (* 2 C5)  (* 2 C6)  (* 1 C7)  (* 1 C8)  (* 1 C9)  (* 1 C10) ))  (>= 2016 (+  (* 16 C1)  (* 8 C2)  (* 6 C3)  (* 3 C4)  (* 2 C5)  (* 2 C6)  (* 1 C7)  (* 1 C8)  (* 1 C9)  (* 1 C10) ))  (>= 2070 (+  (* 17 C1)  (* 8 C2)  (* 6 C3)  (* 3 C4)  (* 2 C5)  (* 2 C6)  (* 1 C7)  (* 1 C8)  (* 1 C9)  (* 1 C10) ))  (>= 2104 (+  (* 17 C1)  (* 8 C2)  (* 7 C3)  (* 3 C4)  (* 2 C5)  (* 2 C6)  (* 1 C7)  (* 1 C8)  (* 1 C9)  (* 1 C10) ))  (>= 2109 (+  (* 17 C1)  (* 9 C2)  (* 7 C3)  (* 3 C4)  (* 2 C5)  (* 2 C6)  (* 1 C7)  (* 1 C8)  (* 1 C9)  (* 1 C10) ))  (>= 2268 (+  (* 18 C1)  (* 9 C2)  (* 7 C3)  (* 4 C4)  (* 2 C5)  (* 2 C6)  (* 1 C7)  (* 1 C8)  (* 1 C9)  (* 1 C10) ))  (>= 2367 (+  (* 19 C1)  (* 9 C2)  (* 7 C3)  (* 4 C4)  (* 2 C5)  (* 2 C6)  (* 1 C7)  (* 1 C8)  (* 1 C9)  (* 1 C10) ))  (>= 2394 (+  (* 19 C1)  (* 10 C2)  (* 7 C3)  (* 4 C4)  (* 2 C5)  (* 2 C6)  (* 1 C7)  (* 1 C8)  (* 1 C9)  (* 1 C10) ))  (>= 2415 (+  (* 20 C1)  (* 10 C2)  (* 7 C3)  (* 4 C4)  (* 2 C5)  (* 2 C6)  (* 1 C7)  (* 1 C8)  (* 1 C9)  (* 1 C10) ))  (>= 2424 (+  (* 20 C1)  (* 10 C2)  (* 8 C3)  (* 4 C4)  (* 2 C5)  (* 2 C6)  (* 1 C7)  (* 1 C8)  (* 1 C9)  (* 1 C10) ))  (>= 2520 (+  (* 20 C1)  (* 10 C2)  (* 8 C3)  (* 4 C4)  (* 3 C5)  (* 2 C6)  (* 1 C7)  (* 1 C8)  (* 1 C9)  (* 1 C10) ))  (>= 2630 (+  (* 21 C1)  (* 10 C2)  (* 8 C3)  (* 4 C4)  (* 3 C5)  (* 2 C6)  (* 1 C7)  (* 1 C8)  (* 1 C9)  (* 1 C10) ))  (>= 2646 (+  (* 21 C1)  (* 11 C2)  (* 8 C3)  (* 4 C4)  (* 3 C5)  (* 2 C6)  (* 1 C7)  (* 1 C8)  (* 1 C9)  (* 1 C10) ))  (>= 2760 (+  (* 22 C1)  (* 11 C2)  (* 8 C3)  (* 4 C4)  (* 3 C5)  (* 2 C6)  (* 1 C7)  (* 1 C8)  (* 1 C9)  (* 1 C10) ))  (>= 2772 (+  (* 22 C1)  (* 11 C2)  (* 9 C3)  (* 4 C4)  (* 3 C5)  (* 2 C6)  (* 1 C7)  (* 1 C8)  (* 1 C9)  (* 1 C10) ))  (>= 2812 (+  (* 23 C1)  (* 11 C2)  (* 9 C3)  (* 4 C4)  (* 3 C5)  (* 2 C6)  (* 1 C7)  (* 1 C8)  (* 1 C9)  (* 1 C10) ))  (>= 2893 (+  (* 23 C1)  (* 11 C2)  (* 9 C3)  (* 5 C4)  (* 3 C5)  (* 2 C6)  (* 1 C7)  (* 1 C8)  (* 1 C9)  (* 1 C10) ))  (>= 2897 (+  (* 23 C1)  (* 12 C2)  (* 9 C3)  (* 5 C4)  (* 3 C5)  (* 2 C6)  (* 1 C7)  (* 1 C8)  (* 1 C9)  (* 1 C10) ))  (>= 3402 (+  (* 27 C1)  (* 13 C2)  (* 10 C3)  (* 5 C4)  (* 3 C5)  (* 2 C6)  (* 2 C7)  (* 1 C8)  (* 1 C9)  (* 1 C10) ))  (>= 3419 (+  (* 28 C1)  (* 13 C2)  (* 10 C3)  (* 5 C4)  (* 3 C5)  (* 2 C6)  (* 2 C7)  (* 1 C8)  (* 1 C9)  (* 1 C10) ))  (>= 3450 (+  (* 28 C1)  (* 14 C2)  (* 10 C3)  (* 5 C4)  (* 3 C5)  (* 2 C6)  (* 2 C7)  (* 1 C8)  (* 1 C9)  (* 1 C10) ))  (>= 3515 (+  (* 28 C1)  (* 14 C2)  (* 11 C3)  (* 5 C4)  (* 3 C5)  (* 2 C6)  (* 2 C7)  (* 1 C8)  (* 1 C9)  (* 1 C10) ))  (>= 3528 (+  (* 28 C1)  (* 14 C2)  (* 11 C3)  (* 6 C4)  (* 3 C5)  (* 2 C6)  (* 2 C7)  (* 1 C8)  (* 1 C9)  (* 1 C10) ))  (>= 3596 (+  (* 29 C1)  (* 14 C2)  (* 11 C3)  (* 6 C4)  (* 3 C5)  (* 2 C6)  (* 2 C7)  (* 1 C8)  (* 1 C9)  (* 1 C10) ))  (>= 3636 (+  (* 29 C1)  (* 14 C2)  (* 11 C3)  (* 6 C4)  (* 3 C5)  (* 3 C6)  (* 2 C7)  (* 1 C8)  (* 1 C9)  (* 1 C10) ))  (>= 3654 (+  (* 29 C1)  (* 14 C2)  (* 11 C3)  (* 6 C4)  (* 4 C5)  (* 3 C6)  (* 2 C7)  (* 1 C8)  (* 1 C9)  (* 1 C10) ))  (>= 3682 (+  (* 30 C1)  (* 14 C2)  (* 11 C3)  (* 6 C4)  (* 4 C5)  (* 3 C6)  (* 2 C7)  (* 1 C8)  (* 1 C9)  (* 1 C10) ))  (>= 3780 (+  (* 30 C1)  (* 15 C2)  (* 11 C3)  (* 6 C4)  (* 4 C5)  (* 3 C6)  (* 2 C7)  (* 1 C8)  (* 1 C9)  (* 1 C10) ))  (>= 3795 (+  (* 31 C1)  (* 15 C2)  (* 11 C3)  (* 6 C4)  (* 4 C5)  (* 3 C6)  (* 2 C7)  (* 1 C8)  (* 1 C9)  (* 1 C10) ))  (>= 3906 (+  (* 31 C1)  (* 15 C2)  (* 12 C3)  (* 6 C4)  (* 4 C5)  (* 3 C6)  (* 2 C7)  (* 1 C8)  (* 1 C9)  (* 1 C10) ))  (>= 3945 (+  (* 32 C1)  (* 15 C2)  (* 12 C3)  (* 6 C4)  (* 4 C5)  (* 3 C6)  (* 2 C7)  (* 1 C8)  (* 1 C9)  (* 1 C10) ))  (>= 4032 (+  (* 32 C1)  (* 16 C2)  (* 12 C3)  (* 6 C4)  (* 4 C5)  (* 3 C6)  (* 2 C7)  (* 1 C8)  (* 1 C9)  (* 1 C10) ))  (>= 4115 (+  (* 33 C1)  (* 16 C2)  (* 12 C3)  (* 6 C4)  (* 4 C5)  (* 3 C6)  (* 2 C7)  (* 1 C8)  (* 1 C9)  (* 1 C10) ))  (>= 4140 (+  (* 33 C1)  (* 16 C2)  (* 12 C3)  (* 6 C4)  (* 4 C5)  (* 3 C6)  (* 2 C7)  (* 2 C8)  (* 1 C9)  (* 1 C10) ))  (>= 4158 (+  (* 33 C1)  (* 16 C2)  (* 13 C3)  (* 6 C4)  (* 4 C5)  (* 3 C6)  (* 2 C7)  (* 2 C8)  (* 1 C9)  (* 1 C10) ))  (>= 4208 (+  (* 34 C1)  (* 16 C2)  (* 13 C3)  (* 6 C4)  (* 4 C5)  (* 3 C6)  (* 2 C7)  (* 2 C8)  (* 1 C9)  (* 1 C10) ))  (>= 4218 (+  (* 34 C1)  (* 17 C2)  (* 13 C3)  (* 6 C4)  (* 4 C5)  (* 3 C6)  (* 2 C7)  (* 2 C8)  (* 1 C9)  (* 1 C10) ))  (>= 4410 (+  (* 35 C1)  (* 17 C2)  (* 13 C3)  (* 7 C4)  (* 4 C5)  (* 3 C6)  (* 2 C7)  (* 2 C8)  (* 1 C9)  (* 1 C10) ))  (>= 4471 (+  (* 36 C1)  (* 17 C2)  (* 13 C3)  (* 7 C4)  (* 4 C5)  (* 3 C6)  (* 2 C7)  (* 2 C8)  (* 1 C9)  (* 1 C10) ))  (>= 4485 (+  (* 36 C1)  (* 18 C2)  (* 13 C3)  (* 7 C4)  (* 4 C5)  (* 3 C6)  (* 2 C7)  (* 2 C8)  (* 1 C9)  (* 1 C10) ))  (>= 4662 (+  (* 37 C1)  (* 18 C2)  (* 14 C3)  (* 7 C4)  (* 4 C5)  (* 3 C6)  (* 2 C7)  (* 2 C8)  (* 1 C9)  (* 1 C10) ))  (>= 4714 (+  (* 38 C1)  (* 18 C2)  (* 14 C3)  (* 7 C4)  (* 4 C5)  (* 3 C6)  (* 2 C7)  (* 2 C8)  (* 1 C9)  (* 1 C10) ))  (>= 4734 (+  (* 38 C1)  (* 18 C2)  (* 14 C3)  (* 7 C4)  (* 4 C5)  (* 3 C6)  (* 2 C7)  (* 2 C8)  (* 2 C9)  (* 1 C10) ))  (>= 4783 (+  (* 38 C1)  (* 19 C2)  (* 14 C3)  (* 7 C4)  (* 4 C5)  (* 3 C6)  (* 2 C7)  (* 2 C8)  (* 2 C9)  (* 1 C10) )) )  (and (>= C1 1) (>= C2 2) (>= C3 3) (>= C4 7) (>= C5 12) (>= C6 17) (>= C7 28) (>= C8 41) (>= C9 47) (>= C10 47) )  (and (<= C1 54) (<= C2 114) (<= C3 149) (<= C4 304) (<= C5 525) (<= C6 779) (<= C7 1256) (<= C8 1785) (<= C9 2044) (<= C10 2074) ) )))
(=> $phi $goal))))